;; sequence(s): A156855
;; terms: 2024 8098 18222 32396 50620 72894 99218 129592 164016 202490 245014 291588 342212 396886 455610 518384 585208 656082 731006 809980
;; small program: (loop(x * x, 1, (1 + x) * loop((2 + (2 + x)) * x, 2, 1)) - 1) - x
;; fast program: (loop(x * x, 1, (1 + x) * loop((2 + x) * (x * x), 1, 1 + 2)) - 1) - x
(set-logic UFNIA)
(declare-fun f0 (Int) Int)
(declare-fun g0 () Int)
(declare-fun f1 (Int) Int)
(declare-fun g1 () Int)
(declare-fun h1 () Int)
(declare-fun u1 (Int Int) Int)
(declare-fun v1 () Int)
(declare-fun h0 (Int) Int)
(declare-fun u0 (Int Int) Int)
(declare-fun v0 (Int) Int)
(declare-fun small (Int) Int)
(declare-fun f2 (Int) Int)
(declare-fun g2 () Int)
(declare-fun f3 (Int) Int)
(declare-fun g3 () Int)
(declare-fun h3 () Int)
(declare-fun u3 (Int Int) Int)
(declare-fun v3 () Int)
(declare-fun h2 (Int) Int)
(declare-fun u2 (Int Int) Int)
(declare-fun v2 (Int) Int)
(declare-fun fast (Int) Int)
(assert (forall ((x Int)) (= (f0 x) (* x x))))
(assert (= g0 1))
(assert (forall ((x Int)) (= (f1 x) (* (+ 2 (+ 2 x)) x))))
(assert (= g1 2))
(assert (= h1 1))
(assert (forall ((x Int) (y Int)) (= (u1 x y) (ite (<= x 0) y (f1 (u1 (- x 1) y))))))
(assert (= v1 (u1 g1 h1)))
(assert (forall ((x Int)) (= (h0 x) (* (+ 1 x) v1))))
(assert (forall ((x Int) (y Int)) (= (u0 x y) (ite (<= x 0) y (f0 (u0 (- x 1) y))))))
(assert (forall ((x Int)) (= (v0 x) (u0 g0 (h0 x)))))
(assert (forall ((x Int)) (= (small x) (- (- (v0 x) 1) x))))
(assert (forall ((x Int)) (= (f2 x) (* x x))))
(assert (= g2 1))
(assert (forall ((x Int)) (= (f3 x) (* (+ 2 x) (* x x)))))
(assert (= g3 1))
(assert (= h3 (+ 1 2)))
(assert (forall ((x Int) (y Int)) (= (u3 x y) (ite (<= x 0) y (f3 (u3 (- x 1) y))))))
(assert (= v3 (u3 g3 h3)))
(assert (forall ((x Int)) (= (h2 x) (* (+ 1 x) v3))))
(assert (forall ((x Int) (y Int)) (= (u2 x y) (ite (<= x 0) y (f2 (u2 (- x 1) y))))))
(assert (forall ((x Int)) (= (v2 x) (u2 g2 (h2 x)))))
(assert (forall ((x Int)) (= (fast x) (- (- (v2 x) 1) x))))
(assert (exists ((c Int)) (and (>= c 0) (not (= (small c) (fast c))))))
(check-sat)
